
Welcome to IBM(R) ILOG(R) CPLEX(R) Interactive Optimizer 22.1.1.0
  with Simplex, Mixed Integer & Barrier Optimizers
5725-A06 5725-A29 5724-Y48 5724-Y49 5724-Y54 5724-Y55 5655-Y21
Copyright IBM Corp. 1988, 2022.  All Rights Reserved.

Type 'help' for a list of available commands.
Type 'help' followed by a command name for more
information on commands.

CPLEX> Selected objective sense:  MINIMIZE
Selected objective  name:  00000000
Selected RHS        name:  RHS1
Selected bound      name:  BOUND
Problem 'ee.mps' read.
Read time = 0.01 sec. (3.14 ticks)
CPLEX> New value for time limit in seconds: 7200
CPLEX> New value for parallel optimization mode: -1
CPLEX> New value for default parallel thread count: 40
CPLEX> New value for mixed integer optimality gap tolerance: 1e-13
CPLEX> Version identifier: 22.1.1.0 | 2022-11-28 | 9160aff4d
CPXPARAM_Threads                                 40
CPXPARAM_Parallel                                -1
CPXPARAM_TimeLimit                               7200
CPXPARAM_MIP_Tolerances_MIPGap                   1e-13
Found incumbent of value 0.000000 after 0.00 sec. (0.31 ticks)
Tried aggregator 2 times.
MIP Presolve eliminated 183 rows and 2745 columns.
MIP Presolve modified 5862 coefficients.
Aggregator did 713 substitutions.
Reduced MIP has 3624 rows, 7744 columns, and 28666 nonzeros.
Reduced MIP has 7744 binaries, 0 generals, 0 SOSs, and 0 indicators.
Presolve time = 0.07 sec. (68.79 ticks)
Probing time = 0.03 sec. (5.31 ticks)
Tried aggregator 1 time.
Detecting symmetries...
Reduced MIP has 3624 rows, 7744 columns, and 28666 nonzeros.
Reduced MIP has 7744 binaries, 0 generals, 0 SOSs, and 0 indicators.
Presolve time = 0.02 sec. (21.95 ticks)
Probing time = 0.02 sec. (5.09 ticks)
Clique table members: 18557.
MIP emphasis: balance optimality and feasibility.
MIP search method: dynamic search.
Parallel mode: opportunistic, using up to 40 threads.
Root relaxation solution time = 0.12 sec. (106.19 ticks)

        Nodes                                         Cuts/
   Node  Left     Objective  IInf  Best Integer    Best Bound    ItCnt     Gap

*     0+    0                            0.0000  -1.31000e+13              --- 
*     0+    0                      -2.20000e+12  -1.31000e+13           495.46%
*     0+    0                      -3.30000e+12  -1.31000e+13           296.97%
*     0+    0                      -4.40000e+12  -1.31000e+13           197.73%
      0     0  -1.30900e+13    67  -4.40000e+12  -1.30900e+13     2421  197.50%
*     0+    0                      -1.30900e+13  -1.30900e+13             0.00%
*     0+    0                      -1.30900e+13  -1.30900e+13             0.00%
      0     0  -1.30900e+13   130  -1.30900e+13      Cuts: 69     3132    0.00%
*     0+    0                      -1.30900e+13  -1.30900e+13             0.00%
      0     0  -1.30900e+13    88  -1.30900e+13      Cuts: 84     3275    0.00%
*     0+    0                      -1.30900e+13  -1.30900e+13             0.00%
      0     0  -1.00000e+75     0  -1.30900e+13  -1.30900e+13     3275    0.00%

Repeating presolve.
Tried aggregator 2 times.
MIP Presolve eliminated 3014 rows and 6399 columns.
MIP Presolve added 40 rows and 0 columns.
MIP Presolve modified 35 coefficients.
Aggregator did 390 substitutions.
Reduced MIP has 260 rows, 912 columns, and 3018 nonzeros.
Reduced MIP has 912 binaries, 0 generals, 0 SOSs, and 0 indicators.
Presolve time = 0.02 sec. (20.98 ticks)
Probing fixed 2 vars, tightened 0 bounds.
Probing time = 0.00 sec. (0.91 ticks)
Tried aggregator 1 time.
Detecting symmetries...
MIP Presolve eliminated 0 rows and 2 columns.
Reduced MIP has 260 rows, 910 columns, and 3010 nonzeros.
Reduced MIP has 910 binaries, 0 generals, 0 SOSs, and 0 indicators.
Presolve time = 0.00 sec. (1.97 ticks)
Represolve time = 0.03 sec. (40.82 ticks)
Probing time = 0.00 sec. (0.84 ticks)
Clique table members: 1299.
MIP emphasis: balance optimality and feasibility.
MIP search method: dynamic search.
Parallel mode: opportunistic, using up to 40 threads.
Root relaxation solution time = 0.01 sec. (14.06 ticks)

        Nodes                                         Cuts/
   Node  Left     Objective  IInf  Best Integer    Best Bound    ItCnt     Gap

*     0+    0                      -1.30900e+13  -1.30900e+13             0.00%
      0     0  -1.30900e+13    43  -1.30900e+13  -1.30900e+13     3834    0.00%
      0     0  -1.30900e+13    77  -1.30900e+13      Cuts: 83     4001    0.00%
      0     0  -1.30900e+13    64  -1.30900e+13      Cuts: 75     4164    0.00%
      0     0  -1.30900e+13    75  -1.30900e+13      Cuts: 38     4287    0.00%
*     0+    0                      -1.30900e+13  -1.30900e+13             0.00%

Repeating presolve.
Tried aggregator 1 time.
MIP Presolve eliminated 47 rows and 390 columns.
Reduced MIP has 213 rows, 520 columns, and 1632 nonzeros.
Reduced MIP has 520 binaries, 0 generals, 0 SOSs, and 0 indicators.
Presolve time = 0.00 sec. (0.94 ticks)
Probing fixed 4 vars, tightened 0 bounds.
Probing time = 0.00 sec. (0.36 ticks)
Tried aggregator 2 times.
MIP Presolve eliminated 1 rows and 5 columns.
Aggregator did 1 substitutions.
Reduced MIP has 211 rows, 514 columns, and 1613 nonzeros.
Reduced MIP has 514 binaries, 0 generals, 0 SOSs, and 0 indicators.
Presolve time = 0.00 sec. (1.74 ticks)
Probing time = 0.00 sec. (0.33 ticks)
Tried aggregator 1 time.
Detecting symmetries...
Reduced MIP has 211 rows, 514 columns, and 1613 nonzeros.
Reduced MIP has 514 binaries, 0 generals, 0 SOSs, and 0 indicators.
Presolve time = 0.00 sec. (1.02 ticks)
Represolve time = 0.03 sec. (16.56 ticks)
Probing time = 0.00 sec. (0.33 ticks)
Clique table members: 681.
MIP emphasis: balance optimality and feasibility.
MIP search method: dynamic search.
Parallel mode: opportunistic, using up to 40 threads.
Root relaxation solution time = 0.01 sec. (7.23 ticks)

        Nodes                                         Cuts/
   Node  Left     Objective  IInf  Best Integer    Best Bound    ItCnt     Gap

*     0+    0                      -1.30900e+13  -1.30900e+13             0.00%
      0     0  -1.30900e+13    66  -1.30900e+13  -1.30900e+13     4691    0.00%
      0     0  -1.30900e+13    27  -1.30900e+13      Cuts: 13     4707    0.00%
      0     0  -1.30900e+13   115  -1.30900e+13       Cuts: 4     4726    0.00%
*     0     0      integral     0  -1.30900e+13      Cuts: 26     4727    0.00%
      0     0        cutoff        -1.30900e+13  -1.30900e+13     4727    0.00%
Elapsed time = 1.20 sec. (829.95 ticks, tree = 0.01 MB, solutions = 10)

Clique cuts applied:  44
Cover cuts applied:  11
Flow cuts applied:  1
Mixed integer rounding cuts applied:  15
Zero-half cuts applied:  6
Lift and project cuts applied:  4
Gomory fractional cuts applied:  5

Root node processing (before b&c):
  Real time             =    1.21 sec. (830.96 ticks)
Parallel b&c, 40 threads:
  Real time             =    0.00 sec. (0.00 ticks)
  Sync time (average)   =    0.00 sec.
  Wait time (average)   =    0.00 sec.
                          ------------
Total (root+branch&cut) =    1.21 sec. (830.96 ticks)

Solution pool: 10 solutions saved.

MIP - Integer optimal solution:  Objective = -1.3089999390e+13
Solution time =    1.24 sec.  Iterations = 4727  Nodes = 0
Deterministic time = 830.99 ticks  (671.79 ticks/sec)

CPLEX> Solution 'p11' written to file 'ee.sol'.
CPLEX> 